BAYES
289
2 2 2 2 2 2 2 2 2 2 2 2 2 2 2 2 2 2 2 2 2 2 2 2 2 2 2 2 2 2 2 2 2 2 2 2 2 2 2 2 2 2 2 2 2 2 2 2 2 2 2 2 2 2 2 2 2 2 2 2 2 2 2 2 2 2 2 2 2 2 2 2 2 2 2 2 2 2 2 2 2 2 2 2 2 2 2 2 2 2 2 2 2 2 2 2 2 2 2 2 2 2 2 2 2 2 2 2 2 2 2 2 2 2 2 2 2 2 2 2 2 2 2 2 2 2 2 2 2 2 2 2 2 2 2 2 2 2 2 2 2 2 2 2 2 2 2 2 2 2 2 2 2 2 2 2 2 2 2 2 2 2 2 2 2 2 2 2 2 2 2 2 2 2 2 2 2 2 2 2 2 2 2 2 2 2 2 2 2 2 2 2 2 2 2 2 2 2 2 2 2 2 2 2 2 2 2 2 2 2 2 2 2 2 2 2 2 2 2 2 2 2 2 2 2 2 2 2 2 2 2 2 2 2 2 2 2 2 2 2 2 2 2 2 2 2 2 2 2 2 2 2 2 2 2 2 2 2 2 2 2 2 2 2 2 2 2 2 2 2 2 2 2 2 2 2 2 2 2 2 2 2 2 2 2 2 2 2 2
289
1 0
2 0 1
2 1 2
2 2 3
2 3 4
2 4 5
2 5 6
2 6 7
2 7 8
2 8 9
2 9 10
2 10 11
2 11 12
2 12 13
2 13 14
2 14 15
2 15 16
2 0 17
3 1 17 18
3 2 18 19
3 3 19 20
3 4 20 21
3 5 21 22
3 6 22 23
3 7 23 24
3 8 24 25
3 9 25 26
3 10 26 27
3 11 27 28
3 12 28 29
3 13 29 30
3 14 30 31
3 15 31 32
3 16 32 33
2 17 34
3 18 34 35
3 19 35 36
3 20 36 37
3 21 37 38
3 22 38 39
3 23 39 40
3 24 40 41
3 25 41 42
3 26 42 43
3 27 43 44
3 28 44 45
3 29 45 46
3 30 46 47
3 31 47 48
3 32 48 49
3 33 49 50
2 34 51
3 35 51 52
3 36 52 53
3 37 53 54
3 38 54 55
3 39 55 56
3 40 56 57
3 41 57 58
3 42 58 59
3 43 59 60
3 44 60 61
3 45 61 62
3 46 62 63
3 47 63 64
3 48 64 65
3 49 65 66
3 50 66 67
2 51 68
3 52 68 69
3 53 69 70
3 54 70 71
3 55 71 72
3 56 72 73
3 57 73 74
3 58 74 75
3 59 75 76
3 60 76 77
3 61 77 78
3 62 78 79
3 63 79 80
3 64 80 81
3 65 81 82
3 66 82 83
3 67 83 84
2 68 85
3 69 85 86
3 70 86 87
3 71 87 88
3 72 88 89
3 73 89 90
3 74 90 91
3 75 91 92
3 76 92 93
3 77 93 94
3 78 94 95
3 79 95 96
3 80 96 97
3 81 97 98
3 82 98 99
3 83 99 100
3 84 100 101
2 85 102
3 86 102 103
3 87 103 104
3 88 104 105
3 89 105 106
3 90 106 107
3 91 107 108
3 92 108 109
3 93 109 110
3 94 110 111
3 95 111 112
3 96 112 113
3 97 113 114
3 98 114 115
3 99 115 116
3 100 116 117
3 101 117 118
2 102 119
3 103 119 120
3 104 120 121
3 105 121 122
3 106 122 123
3 107 123 124
3 108 124 125
3 109 125 126
3 110 126 127
3 111 127 128
3 112 128 129
3 113 129 130
3 114 130 131
3 115 131 132
3 116 132 133
3 117 133 134
3 118 134 135
2 119 136
3 120 136 137
3 121 137 138
3 122 138 139
3 123 139 140
3 124 140 141
3 125 141 142
3 126 142 143
3 127 143 144
3 128 144 145
3 129 145 146
3 130 146 147
3 131 147 148
3 132 148 149
3 133 149 150
3 134 150 151
3 135 151 152
2 136 153
3 137 153 154
3 138 154 155
3 139 155 156
3 140 156 157
3 141 157 158
3 142 158 159
3 143 159 160
3 144 160 161
3 145 161 162
3 146 162 163
3 147 163 164
3 148 164 165
3 149 165 166
3 150 166 167
3 151 167 168
3 152 168 169
2 153 170
3 154 170 171
3 155 171 172
3 156 172 173
3 157 173 174
3 158 174 175
3 159 175 176
3 160 176 177
3 161 177 178
3 162 178 179
3 163 179 180
3 164 180 181
3 165 181 182
3 166 182 183
3 167 183 184
3 168 184 185
3 169 185 186
2 170 187
3 171 187 188
3 172 188 189
3 173 189 190
3 174 190 191
3 175 191 192
3 176 192 193
3 177 193 194
3 178 194 195
3 179 195 196
3 180 196 197
3 181 197 198
3 182 198 199
3 183 199 200
3 184 200 201
3 185 201 202
3 186 202 203
2 187 204
3 188 204 205
3 189 205 206
3 190 206 207
3 191 207 208
3 192 208 209
3 193 209 210
3 194 210 211
3 195 211 212
3 196 212 213
3 197 213 214
3 198 214 215
3 199 215 216
3 200 216 217
3 201 217 218
3 202 218 219
3 203 219 220
2 204 221
3 205 221 222
3 206 222 223
3 207 223 224
3 208 224 225
3 209 225 226
3 210 226 227
3 211 227 228
3 212 228 229
3 213 229 230
3 214 230 231
3 215 231 232
3 216 232 233
3 217 233 234
3 218 234 235
3 219 235 236
3 220 236 237
2 221 238
3 222 238 239
3 223 239 240
3 224 240 241
3 225 241 242
3 226 242 243
3 227 243 244
3 228 244 245
3 229 245 246
3 230 246 247
3 231 247 248
3 232 248 249
3 233 249 250
3 234 250 251
3 235 251 252
3 236 252 253
3 237 253 254
2 238 255
3 239 255 256
3 240 256 257
3 241 257 258
3 242 258 259
3 243 259 260
3 244 260 261
3 245 261 262
3 246 262 263
3 247 263 264
3 248 264 265
3 249 265 266
3 250 266 267
3 251 267 268
3 252 268 269
3 253 269 270
3 254 270 271
2 255 272
3 256 272 273
3 257 273 274
3 258 274 275
3 259 275 276
3 260 276 277
3 261 277 278
3 262 278 279
3 263 279 280
3 264 280 281
3 265 281 282
3 266 282 283
3 267 283 284
3 268 284 285
3 269 285 286
3 270 286 287
3 271 287 288

2
0.417111 0.582889
4
0.839343 0.160657 0.371538 0.628462
4
0.0432905 0.956709 0.969639 0.0303612
4
1.0 0.0 0.0 1.0
4
1.0 0.0 0.0 1.0
4
1.0 0.0 0.0 1.0
4
0.664881 0.335119 0.534982 0.465018
4
0.673908 0.326092 0.0214966 0.978503
4
1.0 0.0 0.0 1.0
4
0.265274 0.734726 0.355372 0.644628
4
1.0 0.0 0.0 1.0
4
1.0 0.0 0.0 1.0
4
0.0 1.0 1.0 0.0
4
1.0 0.0 0.0 1.0
4
0.0 1.0 1.0 0.0
4
1.0 0.0 0.0 1.0
4
1.0 0.0 0.0 1.0
4
0.487699 0.512301 0.926171 0.0738287
8
0.0 1.0 1.0 0.0 1.0 0.0 1.0 0.0
8
0.0 1.0 1.0 0.0 0.0 1.0 0.0 1.0
8
1.0 0.0 0.0 1.0 0.0 1.0 1.0 0.0
8
1.0 0.0 0.0 1.0 0.0 1.0 0.0 1.0
8
1.0 0.0 1.0 0.0 1.0 0.0 0.0 1.0
8
0.772617 0.227383 0.503712 0.496288 0.621474 0.378526 0.260316 0.739684
8
0.0 1.0 1.0 0.0 1.0 0.0 1.0 0.0
8
0.958038 0.0419623 0.124554 0.875446 0.0305198 0.96948 0.0111029 0.988897
8
0.0 1.0 1.0 0.0 0.0 1.0 0.0 1.0
8
0.0 1.0 0.0 1.0 1.0 0.0 0.0 1.0
8
0.0491697 0.95083 0.972575 0.0274249 0.254658 0.745342 0.270896 0.729104
8
0.0 1.0 0.0 1.0 1.0 0.0 1.0 0.0
8
1.0 0.0 1.0 0.0 1.0 0.0 0.0 1.0
8
1.0 0.0 1.0 0.0 0.0 1.0 1.0 0.0
8
0.0 1.0 1.0 0.0 0.0 1.0 1.0 0.0
8
0.0 1.0 1.0 0.0 1.0 0.0 0.0 1.0
4
0.0 1.0 1.0 0.0
8
0.0 1.0 0.0 1.0 1.0 0.0 0.0 1.0
8
0.0 1.0 0.0 1.0 1.0 0.0 1.0 0.0
8
0.0 1.0 0.0 1.0 1.0 0.0 1.0 0.0
8
0.261888 0.738112 0.38936 0.61064 0.0734122 0.926588 0.304492 0.695508
8
1.0 0.0 0.0 1.0 0.0 1.0 1.0 0.0
8
1.0 0.0 1.0 0.0 0.0 1.0 1.0 0.0
8
1.0 0.0 1.0 0.0 0.0 1.0 1.0 0.0
8
0.0 1.0 1.0 0.0 0.0 1.0 0.0 1.0
8
1.0 0.0 0.0 1.0 1.0 0.0 0.0 1.0
8
1.0 0.0 1.0 0.0 1.0 0.0 0.0 1.0
8
0.0 1.0 1.0 0.0 1.0 0.0 1.0 0.0
8
0.0 1.0 1.0 0.0 1.0 0.0 0.0 1.0
8
0.0 1.0 1.0 0.0 0.0 1.0 1.0 0.0
8
0.926511 0.0734885 0.597816 0.402184 0.749483 0.250517 0.734662 0.265338
8
0.0 1.0 1.0 0.0 1.0 0.0 0.0 1.0
8
0.0 1.0 1.0 0.0 0.0 1.0 0.0 1.0
4
1.0 0.0 0.0 1.0
8
1.0 0.0 0.0 1.0 1.0 0.0 1.0 0.0
8
0.903973 0.0960273 0.28312 0.71688 0.619333 0.380667 0.28522 0.71478
8
0.0 1.0 0.0 1.0 0.0 1.0 1.0 0.0
8
1.0 0.0 1.0 0.0 1.0 0.0 0.0 1.0
8
0.0 1.0 0.0 1.0 1.0 0.0 1.0 0.0
8
1.0 0.0 1.0 0.0 1.0 0.0 0.0 1.0
8
0.0 1.0 0.0 1.0 0.0 1.0 1.0 0.0
8
0.0 1.0 1.0 0.0 0.0 1.0 1.0 0.0
8
0.201756 0.798244 0.455857 0.544143 0.771775 0.228225 0.921437 0.0785627
8
0.0 1.0 1.0 0.0 1.0 0.0 1.0 0.0
8
0.999518 0.000481561 0.219603 0.780397 0.772227 0.227773 0.0944421 0.905558
8
0.0 1.0 0.0 1.0 0.0 1.0 1.0 0.0
8
0.0 1.0 1.0 0.0 1.0 0.0 1.0 0.0
8
1.0 0.0 0.0 1.0 1.0 0.0 0.0 1.0
8
0.245849 0.754151 0.149752 0.850248 0.634412 0.365588 0.167287 0.832713
8
0.0 1.0 0.0 1.0 0.0 1.0 1.0 0.0
4
1.0 0.0 0.0 1.0
8
0.0 1.0 0.0 1.0 1.0 0.0 0.0 1.0
8
0.0 1.0 1.0 0.0 0.0 1.0 1.0 0.0
8
1.0 0.0 0.0 1.0 0.0 1.0 0.0 1.0
8
0.809599 0.190401 0.923504 0.0764964 0.626409 0.373591 0.0554484 0.944552
8
0.0 1.0 1.0 0.0 0.0 1.0 0.0 1.0
8
0.612552 0.387448 0.0111603 0.98884 0.0955949 0.904405 0.744451 0.255549
8
0.197614 0.802386 0.970792 0.0292076 0.135831 0.864169 0.63924 0.36076
8
1.0 0.0 0.0 1.0 1.0 0.0 1.0 0.0
8
0.0 1.0 1.0 0.0 0.0 1.0 0.0 1.0
8
0.61886 0.38114 0.904953 0.0950465 0.398428 0.601572 0.674308 0.325692
8
0.65925 0.34075 0.897044 0.102956 0.458379 0.541621 0.0526381 0.947362
8
1.0 0.0 0.0 1.0 1.0 0.0 1.0 0.0
8
0.956055 0.0439449 0.786174 0.213826 0.0481646 0.951835 0.595295 0.404705
8
0.0 1.0 0.0 1.0 1.0 0.0 0.0 1.0
8
0.0395882 0.960412 0.416103 0.583897 0.823862 0.176138 0.848849 0.151151
8
0.0 1.0 0.0 1.0 1.0 0.0 1.0 0.0
4
0.0 1.0 1.0 0.0
8
0.0 1.0 0.0 1.0 1.0 0.0 1.0 0.0
8
0.769995 0.230005 0.460349 0.539651 0.625407 0.374593 0.682329 0.317671
8
1.0 0.0 1.0 0.0 1.0 0.0 0.0 1.0
8
0.0 1.0 1.0 0.0 1.0 0.0 1.0 0.0
8
1.0 0.0 0.0 1.0 1.0 0.0 1.0 0.0
8
0.211423 0.788577 0.744748 0.255252 0.987654 0.0123461 0.492138 0.507862
8
0.0 1.0 1.0 0.0 0.0 1.0 1.0 0.0
8
0.0 1.0 0.0 1.0 0.0 1.0 1.0 0.0
8
1.0 0.0 0.0 1.0 1.0 0.0 0.0 1.0
8
1.0 0.0 0.0 1.0 0.0 1.0 1.0 0.0
8
1.0 0.0 1.0 0.0 1.0 0.0 0.0 1.0
8
0.445281 0.554719 0.112598 0.887402 0.801687 0.198313 0.937419 0.0625811
8
0.0 1.0 1.0 0.0 1.0 0.0 0.0 1.0
8
1.0 0.0 0.0 1.0 0.0 1.0 1.0 0.0
8
1.0 0.0 0.0 1.0 0.0 1.0 0.0 1.0
8
1.0 0.0 0.0 1.0 0.0 1.0 0.0 1.0
4
0.0 1.0 1.0 0.0
8
1.0 0.0 0.0 1.0 0.0 1.0 0.0 1.0
8
0.0 1.0 0.0 1.0 1.0 0.0 1.0 0.0
8
0.787635 0.212365 0.148133 0.851867 0.186016 0.813984 0.277542 0.722458
8
0.0625903 0.93741 0.324277 0.675723 0.245507 0.754493 0.0174117 0.982588
8
0.0 1.0 1.0 0.0 1.0 0.0 0.0 1.0
8
1.0 0.0 0.0 1.0 0.0 1.0 0.0 1.0
8
0.0 1.0 0.0 1.0 1.0 0.0 1.0 0.0
8
0.0 1.0 1.0 0.0 0.0 1.0 0.0 1.0
8
0.845917 0.154083 0.228811 0.771189 0.920789 0.079211 0.0319324 0.968068
8
0.0 1.0 1.0 0.0 0.0 1.0 1.0 0.0
8
1.0 0.0 1.0 0.0 1.0 0.0 0.0 1.0
8
0.0 1.0 1.0 0.0 1.0 0.0 0.0 1.0
8
1.0 0.0 0.0 1.0 1.0 0.0 0.0 1.0
8
0.798583 0.201417 0.402471 0.597529 0.157385 0.842615 0.668393 0.331607
8
0.930041 0.0699591 0.51431 0.48569 0.0724585 0.927541 0.85083 0.14917
8
1.0 0.0 1.0 0.0 0.0 1.0 0.0 1.0
4
0.0 1.0 1.0 0.0
8
0.000563803 0.999436 0.40877 0.59123 0.0980836 0.901916 0.589519 0.410481
8
0.0 1.0 1.0 0.0 1.0 0.0 0.0 1.0
8
1.0 0.0 1.0 0.0 0.0 1.0 1.0 0.0
8
0.118387 0.881613 0.986474 0.013526 0.621537 0.378463 0.962034 0.0379656
8
0.135847 0.864153 0.034493 0.965507 0.767345 0.232655 0.682089 0.317911
8
0.0 1.0 0.0 1.0 1.0 0.0 0.0 1.0
8
0.0 1.0 0.0 1.0 1.0 0.0 1.0 0.0
8
0.0 1.0 0.0 1.0 1.0 0.0 1.0 0.0
8
0.0 1.0 1.0 0.0 1.0 0.0 1.0 0.0
8
1.0 0.0 0.0 1.0 1.0 0.0 1.0 0.0
8
1.0 0.0 1.0 0.0 0.0 1.0 1.0 0.0
8
0.763449 0.236551 0.182032 0.817968 0.855139 0.144861 0.922721 0.0772789
8
1.0 0.0 1.0 0.0 0.0 1.0 0.0 1.0
8
0.423324 0.576676 0.689193 0.310807 0.637772 0.362228 0.401002 0.598998
8
1.0 0.0 1.0 0.0 0.0 1.0 0.0 1.0
8
0.887458 0.112542 0.352762 0.647238 0.538448 0.461552 0.928701 0.0712989
4
0.0 1.0 1.0 0.0
8
0.0 1.0 0.0 1.0 0.0 1.0 1.0 0.0
8
0.0 1.0 0.0 1.0 1.0 0.0 1.0 0.0
8
0.0 1.0 1.0 0.0 1.0 0.0 1.0 0.0
8
0.0 1.0 1.0 0.0 1.0 0.0 0.0 1.0
8
0.0 1.0 0.0 1.0 0.0 1.0 1.0 0.0
8
0.0 1.0 0.0 1.0 1.0 0.0 1.0 0.0
8
0.0 1.0 1.0 0.0 1.0 0.0 1.0 0.0
8
0.0 1.0 1.0 0.0 1.0 0.0 1.0 0.0
8
0.0 1.0 1.0 0.0 1.0 0.0 1.0 0.0
8
1.0 0.0 1.0 0.0 1.0 0.0 0.0 1.0
8
1.0 0.0 1.0 0.0 0.0 1.0 1.0 0.0
8
0.0 1.0 1.0 0.0 1.0 0.0 1.0 0.0
8
0.964805 0.0351945 0.474355 0.525645 0.274377 0.725623 0.131229 0.868771
8
1.0 0.0 1.0 0.0 0.0 1.0 0.0 1.0
8
0.355503 0.644497 0.568146 0.431854 0.652777 0.347223 0.114438 0.885562
8
1.0 0.0 1.0 0.0 1.0 0.0 0.0 1.0
4
1.0 0.0 0.0 1.0
8
0.245094 0.754906 0.236955 0.763045 0.733001 0.266999 0.842131 0.157869
8
0.0 1.0 0.0 1.0 1.0 0.0 1.0 0.0
8
1.0 0.0 1.0 0.0 0.0 1.0 0.0 1.0
8
1.0 0.0 0.0 1.0 0.0 1.0 0.0 1.0
8
0.0 1.0 1.0 0.0 0.0 1.0 1.0 0.0
8
1.0 0.0 0.0 1.0 1.0 0.0 1.0 0.0
8
1.0 0.0 0.0 1.0 1.0 0.0 0.0 1.0
8
0.0 1.0 0.0 1.0 0.0 1.0 1.0 0.0
8
1.0 0.0 0.0 1.0 0.0 1.0 1.0 0.0
8
0.521013 0.478987 0.438636 0.561364 0.730927 0.269073 0.592826 0.407174
8
0.0 1.0 0.0 1.0 1.0 0.0 0.0 1.0
8
0.0 1.0 0.0 1.0 0.0 1.0 1.0 0.0
8
1.0 0.0 0.0 1.0 1.0 0.0 1.0 0.0
8
1.0 0.0 0.0 1.0 0.0 1.0 1.0 0.0
8
0.488997 0.511003 0.283613 0.716387 0.0676024 0.932398 0.266364 0.733636
8
0.0 1.0 1.0 0.0 1.0 0.0 1.0 0.0
4
0.831897 0.168103 0.414226 0.585774
8
0.0 1.0 1.0 0.0 0.0 1.0 0.0 1.0
8
1.0 0.0 1.0 0.0 0.0 1.0 0.0 1.0
8
1.0 0.0 0.0 1.0 1.0 0.0 0.0 1.0
8
0.0 1.0 1.0 0.0 1.0 0.0 1.0 0.0
8
0.0211517 0.978848 0.543076 0.456924 0.0573309 0.942669 0.609767 0.390233
8
0.0 1.0 1.0 0.0 0.0 1.0 1.0 0.0
8
0.0 1.0 1.0 0.0 0.0 1.0 0.0 1.0
8
0.0 1.0 1.0 0.0 1.0 0.0 0.0 1.0
8
0.0 1.0 1.0 0.0 0.0 1.0 0.0 1.0
8
0.0434212 0.956579 0.505443 0.494557 0.344675 0.655325 0.99697 0.00302952
8
0.143897 0.856103 0.0181222 0.981878 0.325231 0.674769 0.201228 0.798772
8
0.0 1.0 1.0 0.0 0.0 1.0 1.0 0.0
8
0.0 1.0 1.0 0.0 0.0 1.0 0.0 1.0
8
1.0 0.0 0.0 1.0 1.0 0.0 0.0 1.0
8
0.00765066 0.992349 0.344967 0.655033 0.634388 0.365612 0.87387 0.12613
8
1.0 0.0 1.0 0.0 1.0 0.0 0.0 1.0
4
0.350293 0.649707 0.952025 0.0479747
8
0.675524 0.324476 0.153253 0.846747 0.560274 0.439726 0.248831 0.751169
8
0.0 1.0 1.0 0.0 0.0 1.0 1.0 0.0
8
0.0 1.0 1.0 0.0 0.0 1.0 0.0 1.0
8
1.0 0.0 0.0 1.0 0.0 1.0 0.0 1.0
8
0.0 1.0 1.0 0.0 0.0 1.0 1.0 0.0
8
1.0 0.0 1.0 0.0 0.0 1.0 0.0 1.0
8
0.0 1.0 0.0 1.0 1.0 0.0 0.0 1.0
8
1.0 0.0 0.0 1.0 0.0 1.0 0.0 1.0
8
0.116173 0.883827 0.439486 0.560514 0.677924 0.322076 0.872706 0.127294
8
1.0 0.0 1.0 0.0 0.0 1.0 1.0 0.0
8
0.311684 0.688316 0.425871 0.574129 0.499826 0.500174 0.154943 0.845057
8
0.767123 0.232877 0.80633 0.19367 0.176943 0.823057 0.384714 0.615286
8
1.0 0.0 0.0 1.0 1.0 0.0 1.0 0.0
8
0.0 1.0 1.0 0.0 1.0 0.0 0.0 1.0
8
0.0 1.0 0.0 1.0 0.0 1.0 1.0 0.0
8
0.0 1.0 1.0 0.0 1.0 0.0 1.0 0.0
4
0.350133 0.649867 0.933823 0.0661774
8
0.0 1.0 0.0 1.0 0.0 1.0 1.0 0.0
8
1.0 0.0 0.0 1.0 0.0 1.0 0.0 1.0
8
0.0 1.0 1.0 0.0 0.0 1.0 1.0 0.0
8
1.0 0.0 1.0 0.0 0.0 1.0 1.0 0.0
8
0.0 1.0 1.0 0.0 0.0 1.0 0.0 1.0
8
1.0 0.0 1.0 0.0 1.0 0.0 0.0 1.0
8
0.154601 0.845399 0.448738 0.551262 0.772107 0.227893 0.768151 0.231849
8
0.0 1.0 0.0 1.0 1.0 0.0 0.0 1.0
8
0.0 1.0 1.0 0.0 1.0 0.0 1.0 0.0
8
0.0 1.0 0.0 1.0 1.0 0.0 1.0 0.0
8
1.0 0.0 1.0 0.0 1.0 0.0 0.0 1.0
8
0.0 1.0 0.0 1.0 1.0 0.0 0.0 1.0
8
0.21998 0.78002 0.668092 0.331908 0.764048 0.235952 0.988131 0.011869
8
0.933191 0.0668092 0.0476616 0.952338 0.895421 0.104579 0.766689 0.233311
8
1.0 0.0 0.0 1.0 0.0 1.0 0.0 1.0
8
1.0 0.0 1.0 0.0 0.0 1.0 0.0 1.0
4
1.0 0.0 0.0 1.0
8
0.0 1.0 0.0 1.0 1.0 0.0 1.0 0.0
8
1.0 0.0 0.0 1.0 1.0 0.0 1.0 0.0
8
0.634273 0.365727 0.260292 0.739708 0.747403 0.252597 0.472251 0.527749
8
0.0 1.0 0.0 1.0 0.0 1.0 1.0 0.0
8
0.0 1.0 1.0 0.0 0.0 1.0 1.0 0.0
8
1.0 0.0 1.0 0.0 0.0 1.0 0.0 1.0
8
1.0 0.0 0.0 1.0 0.0 1.0 0.0 1.0
8
1.0 0.0 0.0 1.0 0.0 1.0 0.0 1.0
8
1.0 0.0 0.0 1.0 0.0 1.0 1.0 0.0
8
1.0 0.0 0.0 1.0 1.0 0.0 1.0 0.0
8
1.0 0.0 1.0 0.0 0.0 1.0 0.0 1.0
8
0.0 1.0 1.0 0.0 0.0 1.0 0.0 1.0
8
0.0 1.0 1.0 0.0 1.0 0.0 1.0 0.0
8
1.0 0.0 0.0 1.0 1.0 0.0 1.0 0.0
8
0.908653 0.0913472 0.163253 0.836747 0.616114 0.383886 0.307366 0.692634
8
1.0 0.0 0.0 1.0 0.0 1.0 0.0 1.0
4
1.0 0.0 0.0 1.0
8
0.0 1.0 1.0 0.0 0.0 1.0 1.0 0.0
8
1.0 0.0 0.0 1.0 1.0 0.0 1.0 0.0
8
0.0 1.0 0.0 1.0 1.0 0.0 1.0 0.0
8
1.0 0.0 0.0 1.0 0.0 1.0 0.0 1.0
8
0.0 1.0 1.0 0.0 1.0 0.0 1.0 0.0
8
1.0 0.0 0.0 1.0 1.0 0.0 0.0 1.0
8
0.0 1.0 1.0 0.0 0.0 1.0 1.0 0.0
8
1.0 0.0 0.0 1.0 1.0 0.0 0.0 1.0
8
0.428278 0.571722 0.100235 0.899765 0.433554 0.566446 0.125844 0.874156
8
0.787889 0.212111 0.59364 0.40636 0.373995 0.626005 0.0636594 0.936341
8
0.0378916 0.962108 0.955543 0.0444568 0.653906 0.346094 0.0481717 0.951828
8
1.0 0.0 0.0 1.0 1.0 0.0 0.0 1.0
8
1.0 0.0 0.0 1.0 1.0 0.0 1.0 0.0
8
1.0 0.0 0.0 1.0 1.0 0.0 0.0 1.0
8
0.669566 0.330434 0.882392 0.117608 0.0609519 0.939048 0.103119 0.896881
8
0.0 1.0 1.0 0.0 1.0 0.0 1.0 0.0
4
0.571966 0.428034 0.346189 0.653811
8
0.225872 0.774128 0.394361 0.605639 0.540683 0.459317 0.463158 0.536842
8
0.163728 0.836272 0.735756 0.264244 0.21146 0.78854 0.163606 0.836394
8
1.0 0.0 0.0 1.0 1.0 0.0 0.0 1.0
8
0.589599 0.410401 0.57683 0.42317 0.719318 0.280682 0.259164 0.740836
8
1.0 0.0 0.0 1.0 1.0 0.0 0.0 1.0
8
0.0 1.0 1.0 0.0 0.0 1.0 0.0 1.0
8
0.0 1.0 0.0 1.0 1.0 0.0 1.0 0.0
8
0.0 1.0 1.0 0.0 1.0 0.0 0.0 1.0
8
0.410785 0.589215 0.279641 0.720359 0.162263 0.837737 0.271064 0.728936
8
1.0 0.0 0.0 1.0 1.0 0.0 0.0 1.0
8
0.0 1.0 0.0 1.0 0.0 1.0 1.0 0.0
8
0.0 1.0 1.0 0.0 1.0 0.0 1.0 0.0
8
0.0 1.0 1.0 0.0 0.0 1.0 0.0 1.0
8
0.0 1.0 0.0 1.0 1.0 0.0 0.0 1.0
8
1.0 0.0 0.0 1.0 1.0 0.0 1.0 0.0
8
0.0 1.0 1.0 0.0 0.0 1.0 1.0 0.0
4
0.0 1.0 1.0 0.0
8
0.0 1.0 0.0 1.0 1.0 0.0 0.0 1.0
8
0.0 1.0 1.0 0.0 1.0 0.0 1.0 0.0
8
0.664289 0.335711 0.783166 0.216834 0.485236 0.514764 0.478293 0.521707
8
0.0 1.0 0.0 1.0 1.0 0.0 1.0 0.0
8
0.0 1.0 1.0 0.0 0.0 1.0 1.0 0.0
8
0.633795 0.366205 0.570991 0.429009 0.113564 0.886436 0.176222 0.823778
8
1.0 0.0 1.0 0.0 1.0 0.0 0.0 1.0
8
0.407068 0.592932 0.560273 0.439727 0.66401 0.33599 0.587684 0.412316
8
0.0 1.0 0.0 1.0 1.0 0.0 0.0 1.0
8
0.0 1.0 0.0 1.0 0.0 1.0 1.0 0.0
8
1.0 0.0 1.0 0.0 0.0 1.0 1.0 0.0
8
0.0 1.0 1.0 0.0 1.0 0.0 1.0 0.0
8
0.50962 0.49038 0.959878 0.0401222 0.703623 0.296377 0.104053 0.895947
8
0.110691 0.889309 0.664326 0.335674 0.584592 0.415408 0.698375 0.301625
8
1.0 0.0 0.0 1.0 1.0 0.0 1.0 0.0
8
1.0 0.0 1.0 0.0 0.0 1.0 0.0 1.0